Maximize
  300000 z1 + 300000 z2 + 450000 z3 + 100000 z4 + 100000 z5 + 400000 z6 + 300000 z7 
  - 500000 y1 - 500000 y2 - 500000 y3 - 500000 y4 - 500000 y5 - 500000 y6 - 500000 y7
Subject To
  city_1: x11 + x12 + x13 + x14 + x15 + x16 + x17 = 1
  city_2: x21 + x22 + x23 + x24 + x25 + x26 + x27 = 1
  city_3: x31 + x32 + x33 + x34 + x35 + x36 + x37 = 1
  city_4: x41 + x42 + x43 + x44 + x45 + x46 + x47 = 1
  city_5: x51 + x52 + x53 + x54 + x55 + x56 + x57 = 1
  city_6: x61 + x62 + x63 + x64 + x65 + x66 + x67 = 1
  city_7: x71 + x72 + x73 + x74 + x75 + x76 + x77 = 1
  x21 + x11 <= 1
  x22 + x12 <= 1
  x23 + x13 <= 1
  x24 + x14 <= 1
  x25 + x15 <= 1
  x26 + x16 <= 1
  x27 + x17 <= 1
  x31 + x11 <= 1
  x32 + x12 <= 1
  x33 + x13 <= 1
  x34 + x14 <= 1
  x35 + x15 <= 1
  x36 + x16 <= 1
  x37 + x17 <= 1
  x61 + x11 <= 1
  x62 + x12 <= 1
  x63 + x13 <= 1
  x64 + x14 <= 1
  x65 + x15 <= 1
  x66 + x16 <= 1
  x67 + x17 <= 1
  x41 + x21 <= 1
  x42 + x22 <= 1
  x43 + x23 <= 1
  x44 + x24 <= 1
  x45 + x25 <= 1
  x46 + x26 <= 1
  x47 + x27 <= 1
  x41 + x31 <= 1
  x42 + x32 <= 1
  x43 + x33 <= 1
  x44 + x34 <= 1
  x45 + x35 <= 1
  x46 + x36 <= 1
  x47 + x37 <= 1
  x51 + x31 <= 1
  x52 + x32 <= 1
  x53 + x33 <= 1
  x54 + x34 <= 1
  x55 + x35 <= 1
  x56 + x36 <= 1
  x57 + x37 <= 1
  x71 + x31 <= 1
  x72 + x32 <= 1
  x73 + x33 <= 1
  x74 + x34 <= 1
  x75 + x35 <= 1
  x76 + x36 <= 1
  x77 + x37 <= 1
  x71 + x41 <= 1
  x72 + x42 <= 1
  x73 + x43 <= 1
  x74 + x44 <= 1
  x75 + x45 <= 1
  x76 + x46 <= 1
  x77 + x47 <= 1
  x71 + x51 <= 1
  x72 + x52 <= 1
  x73 + x53 <= 1
  x74 + x54 <= 1
  x75 + x55 <= 1
  x76 + x56 <= 1
  x77 + x57 <= 1
  x71 + x61 <= 1
  x72 + x62 <= 1
  x73 + x63 <= 1
  x74 + x64 <= 1
  x75 + x65 <= 1
  x76 + x66 <= 1
  x77 + x67 <= 1
  x11 + x21 + x31 + x41 + x51 + x61 + x71 - 10 y1 <= 0
  x12 + x22 + x32 + x42 + x52 + x62 + x72 - 10 y2 <= 0
  x13 + x23 + x33 + x43 + x53 + x63 + x73 - 10 y3 <= 0
  x14 + x24 + x34 + x44 + x54 + x64 + x74 - 10 y4 <= 0
  x15 + x25 + x35 + x45 + x55 + x65 + x75 - 10 y5 <= 0
  x16 + x26 + x36 + x46 + x56 + x66 + x76 - 10 y6 <= 0
  x17 + x27 + x37 + x47 + x57 + x67 + x77 - 10 y7 <= 0
  x11 + x12 + x13 + x14 + x15 + x16 + x17 - z1 >= 0
  x21 + x22 + x23 + x24 + x25 + x26 + x27 - z2 >= 0
  x31 + x32 + x33 + x34 + x35 + x36 + x37 - z3 >= 0
  x41 + x42 + x43 + x44 + x45 + x46 + x47 - z4 >= 0
  x51 + x52 + x53 + x54 + x55 + x56 + x57 - z5 >= 0
  x61 + x62 + x63 + x64 + x65 + x66 + x67 - z6 >= 0
  x71 + x72 + x73 + x74 + x75 + x76 + x77 - z7 >= 0
Binary
  y1 y2 y3 y4 y5 y6 y7 z1 z2 z3 z4 z5 z6 z7
  x11 x12 x13 x14 x15 x16 x17 x21 x22 x23 x24 x25 x26 x27
  x31 x32 x33 x34 x35 x36 x37 x41 x42 x43 x44 x45 x46 x47
  x51 x52 x53 x54 x55 x56 x57 x61 x62 x63 x64 x65 x66 x67
	x71 x72 x73 x74 x75 x76 x77
